Copyright (C) 2013-2015, Filipe Brandao
Build (method = -2)
  #dp: 87750
  Step-3' Graph: 545 vertices and 45183 arcs (0.33s)
  Step-4' Graph: 537 vertices and 45167 arcs (0.34s)
  #V4/#V3 = 0.99
  #A4/#A3 = 1.00
Ready! (0.34s)
Optimize a model with 837 rows, 45168 columns and 134438 nonzeros
Presolve removed 110 rows and 110 columns
Presolve time: 0.24s
Presolved: 727 rows, 45058 columns, 133830 nonzeros
Variable types: 0 continuous, 45058 integer (22274 binary)
Optimize a model with 727 rows, 45058 columns and 133830 nonzeros
Presolved: 727 rows, 45058 columns, 133830 nonzeros

Root barrier log...

Ordering time: 0.01s

Barrier statistics:
 AA' NZ     : 8.350e+04
 Factor NZ  : 1.751e+05 (roughly 20 MBytes of memory)
 Factor Ops : 5.696e+07 (less than 1 second per iteration)
 Threads    : 1

                  Objective                Residual
Iter       Primal          Dual         Primal    Dual     Compl     Time
   0   1.50610455e+05 -1.05796850e+06  2.62e+06 8.49e-02  2.75e+02     0s
   1   4.29845331e+04 -2.58345807e+05  2.74e+05 7.77e-16  3.07e+01     0s
   2   6.24548705e+03 -6.05010712e+04  1.87e+04 1.03e-14  2.57e+00     0s
   3   2.38001045e+03 -2.89374174e+04  2.06e+03 2.41e-03  5.28e-01     0s
   4   1.63077690e+03 -6.94020290e+03  5.85e+02 3.71e-04  1.38e-01     0s
   5   9.02665972e+02 -2.35755144e+03  1.89e+02 2.51e-05  4.86e-02     0s
   6   6.00736901e+02 -8.82103247e+02  8.08e+01 6.60e-15  2.08e-02     0s
   7   4.97764475e+02 -5.54476294e+02  5.16e+01 6.41e-15  1.41e-02     0s
   8   4.15268760e+02 -3.85344664e+02  3.29e+01 7.35e-15  1.03e-02     0s
   9   3.92344861e+02 -2.82335218e+02  2.83e+01 8.63e-15  8.61e-03     0s
  10   3.63120408e+02 -2.21086040e+02  2.28e+01 8.27e-15  7.35e-03     0s
  11   3.18402284e+02 -1.12300126e+02  1.64e+01 8.63e-15  5.34e-03     0s
  12   2.78609835e+02 -4.23908051e+01  1.06e+01 8.82e-15  3.89e-03     0s
  13   2.49720225e+02  5.46961616e+01  6.91e+00 7.41e-15  2.34e-03     0s
  14   2.33983938e+02  1.05454298e+02  5.09e+00 7.89e-15  1.53e-03     0s
  15   2.27280370e+02  1.24415574e+02  4.31e+00 7.99e-15  1.22e-03     0s
  16   2.12973376e+02  1.41747121e+02  2.54e+00 7.75e-15  8.32e-04     0s
  17   2.08171206e+02  1.54539970e+02  1.76e+00 7.26e-15  6.20e-04     0s
  18   2.05561695e+02  1.64030700e+02  1.39e+00 7.75e-15  4.77e-04     0s
  19   2.02157217e+02  1.76430332e+02  8.36e-01 7.30e-15  2.93e-04     0s
  20   2.00414067e+02  1.87139186e+02  5.22e-01 6.95e-15  1.50e-04     1s
  21   1.99274200e+02  1.90140926e+02  2.80e-01 7.92e-15  1.03e-04     1s
  22   1.98840318e+02  1.91337242e+02  2.12e-01 7.77e-15  8.41e-05     1s
  23   1.98314434e+02  1.92790881e+02  1.27e-01 9.88e-15  6.17e-05     1s
  24   1.98145016e+02  1.93914997e+02  1.01e-01 1.14e-14  4.72e-05     1s
  25   1.98033107e+02  1.94628909e+02  8.48e-02 9.99e-15  3.80e-05     1s
  26   1.97878966e+02  1.95160178e+02  6.34e-02 8.55e-15  3.03e-05     1s
  27   1.97720699e+02  1.95769699e+02  4.30e-02 7.74e-15  2.17e-05     1s
  28   1.97664920e+02  1.96090836e+02  3.66e-02 9.10e-15  1.75e-05     1s
  29   1.97560218e+02  1.96231876e+02  2.55e-02 9.38e-15  1.48e-05     1s
  30   1.97425234e+02  1.96511056e+02  1.17e-02 9.03e-15  1.02e-05     1s
  31   1.97398665e+02  1.96695939e+02  9.53e-03 9.33e-15  7.81e-06     1s
  32   1.97378259e+02  1.96778773e+02  8.10e-03 9.02e-15  6.66e-06     1s
  33   1.97359306e+02  1.96793866e+02  6.87e-03 1.05e-14  6.28e-06     1s
  34   1.97345093e+02  1.96909642e+02  5.87e-03 8.72e-15  4.84e-06     1s
  35   1.97319057e+02  1.96964893e+02  4.24e-03 9.39e-15  3.93e-06     1s
  36   1.97309317e+02  1.96983536e+02  3.76e-03 1.07e-14  3.62e-06     1s
  37   1.97303885e+02  1.97052351e+02  3.47e-03 9.38e-15  2.79e-06     1s
  38   1.97280549e+02  1.97081514e+02  2.14e-03 8.58e-15  2.21e-06     1s
  39   1.97276873e+02  1.97115005e+02  1.99e-03 9.30e-15  1.80e-06     1s
  40   1.97270725e+02  1.97156079e+02  1.69e-03 7.96e-15  1.27e-06     1s
  41   1.97264754e+02  1.97193405e+02  1.33e-03 7.00e-15  7.93e-07     1s
  42   1.97257403e+02  1.97201763e+02  9.78e-04 7.62e-15  6.18e-07     1s
  43   1.97245975e+02  1.97215972e+02  5.71e-04 7.04e-15  3.34e-07     1s
  44   1.97233492e+02  1.97226802e+02  1.39e-04 6.77e-15  7.44e-08     1s
  45   1.97228958e+02  1.97228834e+02  1.80e-12 5.38e-15  1.36e-09     1s
  46   1.97228916e+02  1.97228916e+02  2.27e-13 5.89e-15  1.36e-12     1s

Barrier solved model in 46 iterations and 1.12 seconds
Optimal objective 1.97228916e+02


Root relaxation: objective 1.972289e+02, 3996 iterations, 1.22 seconds

    Nodes    |    Current Node    |     Objective Bounds      |     Work
 Expl Unexpl |  Obj  Depth IntInf | Incumbent    BestBd   Gap | It/Node Time

     0     0  197.22892    0  241          -  197.22892     -      -    2s
H    0     0                     201.0000000  197.22892  1.88%     -    3s
H    0     0                     200.0000000  197.22892  1.39%     -    4s
H    0     0                     198.0000000  197.22892  0.39%     -    5s

Explored 0 nodes (8719 simplex iterations) in 5.28 seconds
Thread count was 1 (of 4 available processors)

Optimal solution found (tolerance 0.00e+00)
Best objective 1.980000000000e+02, best bound 1.980000000000e+02, gap 0.0%
Preprocessing time: 0.44 seconds
Gurobi run time: 5.28 seconds
Total run time: 5.72 seconds
Objective: 198
Solution:
1 x [i=1, i=203]
1 x [i=2, i=202]
1 x [i=3, i=201]
1 x [i=4, i=200]
1 x [i=4, i=263, i=278]
2 x [i=5, i=199]
1 x [i=5, i=253, i=290]
1 x [i=6, i=258, i=281]
1 x [i=6, i=264, i=274]
1 x [i=6, i=288]
1 x [i=7, i=198]
1 x [i=8, i=254, i=285]
1 x [i=9, i=196]
2 x [i=9, i=249, i=296]
1 x [i=10, i=247, i=297]
1 x [i=11, i=195]
1 x [i=12, i=248, i=294]
1 x [i=13, i=260, i=270]
1 x [i=14, i=192]
2 x [i=15, i=191]
1 x [i=16, i=190]
1 x [i=17, i=189]
1 x [i=18, i=255, i=272]
1 x [i=19, i=243, i=291]
1 x [i=20, i=188]
1 x [i=21, i=246, i=285]
1 x [i=22, i=231, i=300]
1 x [i=23, i=187]
1 x [i=24, i=184]
1 x [i=24, i=253, i=268]
1 x [i=25, i=183]
1 x [i=26, i=182]
1 x [i=26, i=232, i=298]
1 x [i=27, i=181]
1 x [i=28, i=180]
1 x [i=29, i=179]
1 x [i=30, i=178]
1 x [i=30, i=242, i=279]
1 x [i=31, i=177]
1 x [i=31, i=228, i=296]
1 x [i=32, i=223, i=300]
1 x [i=33, i=174]
1 x [i=33, i=175]
1 x [i=34, i=173]
1 x [i=35, i=172]
1 x [i=35, i=233, i=286]
1 x [i=36, i=171]
1 x [i=36, i=236, i=281]
1 x [i=36, i=277]
2 x [i=37, i=170]
1 x [i=37, i=281]
1 x [i=38, i=169]
2 x [i=39, i=168]
1 x [i=40, i=166]
1 x [i=41, i=165]
1 x [i=41, i=215, i=299]
1 x [i=42, i=244, i=266]
1 x [i=42, i=252, i=254]
1 x [i=43, i=227, i=280]
1 x [i=44, i=210, i=300]
2 x [i=45, i=163]
1 x [i=46, i=162]
1 x [i=47, i=216, i=293]
1 x [i=47, i=240, i=266]
1 x [i=48, i=219, i=287]
1 x [i=49, i=159]
1 x [i=50, i=158]
1 x [i=50, i=240, i=262]
2 x [i=51, i=157]
1 x [i=52, i=156]
2 x [i=53, i=155]
3 x [i=54, i=154]
1 x [i=55, i=153]
1 x [i=56, i=152]
1 x [i=56, i=236, i=263]
1 x [i=56, i=237, i=261]
1 x [i=57, i=150]
1 x [i=58, i=149]
1 x [i=59, i=148]
1 x [i=59, i=220, i=273]
1 x [i=60, i=147]
1 x [i=60, i=212, i=282]
1 x [i=60, i=218, i=275]
1 x [i=61, i=239, i=254]
1 x [i=62, i=210, i=283]
1 x [i=62, i=220, i=271]
1 x [i=62, i=231, i=260]
1 x [i=62, i=234, i=258]
1 x [i=62, i=247, i=249]
1 x [i=63, i=146]
1 x [i=64, i=145]
1 x [i=65, i=144]
1 x [i=66, i=143]
1 x [i=66, i=203, i=292]
1 x [i=67, i=142]
1 x [i=68, i=141]
1 x [i=69, i=140]
1 x [i=70, i=138]
1 x [i=71, i=217, i=267]
1 x [i=72, i=211, i=271]
1 x [i=72, i=214, i=269]
1 x [i=72, i=221, i=262]
1 x [i=73, i=137]
1 x [i=74, i=197, i=291]
1 x [i=74, i=215, i=265]
1 x [i=74, i=220, i=259]
1 x [i=75, i=207, i=273]
3 x [i=76, i=134]
1 x [i=77, i=132]
1 x [i=78, i=131]
1 x [i=79, i=210, i=264]
1 x [i=80, i=233, i=245]
2 x [i=81, i=130]
1 x [i=81, i=212, i=259]
1 x [i=82, i=129]
1 x [i=82, i=219, i=253]
1 x [i=82, i=238, i=238]
1 x [i=83, i=128]
2 x [i=84, i=127]
1 x [i=84, i=186, i=294]
1 x [i=85, i=213, i=256]
1 x [i=86, i=175, i=300]
1 x [i=86, i=195, i=277]
1 x [i=87, i=214, i=254]
2 x [i=88, i=126]
1 x [i=88, i=193, i=278]
1 x [i=88, i=194, i=277]
1 x [i=89, i=124]
1 x [i=90, i=123]
2 x [i=90, i=208, i=257]
1 x [i=91, i=122]
1 x [i=91, i=176, i=298]
1 x [i=92, i=203, i=263]
1 x [i=93, i=121]
3 x [i=94, i=119]
1 x [i=95, i=118]
2 x [i=96, i=117]
1 x [i=97, i=186, i=280]
1 x [i=98, i=229, i=233]
1 x [i=99, i=208, i=251]
1 x [i=99, i=222, i=240]
1 x [i=100, i=116]
2 x [i=101, i=115]
1 x [i=101, i=225, i=235]
1 x [i=102, i=167, i=295]
1 x [i=103, i=112]
1 x [i=104, i=180, i=276]
1 x [i=105, i=109]
1 x [i=105, i=206, i=250]
1 x [i=106, i=224, i=226]
1 x [i=107, i=160, i=296]
1 x [i=108, i=167, i=284]
1 x [i=110, i=214, i=234]
1 x [i=111, i=188, i=259]
1 x [i=112, i=176, i=270]
1 x [i=113, i=203, i=244]
1 x [i=113, i=219, i=224]
1 x [i=114, i=204, i=241]
1 x [i=118, i=201, i=238]
1 x [i=120, i=207, i=230]
1 x [i=125, i=134, i=300]
1 x [i=128, i=142, i=286]
2 x [i=133, i=157, i=262]
1 x [i=133, i=133, i=289]
1 x [i=135, i=189, i=234]
2 x [i=136, i=155, i=259]
1 x [i=139, i=139, i=269]
1 x [i=143, i=154, i=253]
1 x [i=149, i=176, i=230]
1 x [i=150, i=185, i=223]
1 x [i=151, i=164, i=239]
1 x [i=160, i=167, i=228]
1 x [i=161, i=195, i=205]
1 x [i=163, i=164, i=229]
1 x [i=173, i=176, i=209]
1 x [i=197, i=208, i=269, i=288]
